(declare-const term_to_project_onto0 Real)
(declare-const term_to_project_onto Real)
(declare-const term_to_project_onto1 Real)
(declare-const tmp___0 Int)
(assert (exists
         ((|tmp___0'?1| Int) (|y'?2| Int) (|x'?3| Int) (phi_y?4 Int)
            (phi_x?5 Int) (rem?6 Int) (havoc?7 Int) (y?8 Int) (x?9 Int))
         (and (or (<= (+ havoc?7 1) 0) (<= (+ (- havoc?7) 1) 0))
                (or (and (or (<= x?9 0)
                               (and (<= (- rem?6) 0)
                                      (or (<= (+ rem?6 1) 0)
                                            (<= (+ (- rem?6) 1) 0))
                                      (or (<= (+ rem?6 -1) 0)
                                            (<= (+ rem?6 1) 0))
                                      (is_int (/ (+ x?9 (- rem?6)) 2))))
                           (= (+ (- phi_x?5) x?9 -1) 0)
                           (= (+ (- phi_y?4) y?8 -1) 0))
                      (and (is_int (/ x?9 2)) (<= (- x?9) 0)
                             (= (+ (- phi_x?5) x?9 2) 0)
                             (= (+ (- phi_y?4) y?8 -2) 0)))
                (= (+ |tmp___0'?1| (- havoc?7)) 0)
                (= (+ |y'?2| (- phi_y?4)) 0) (= (+ |x'?3| (- phi_x?5)) 0)
                (= term_to_project_onto1 (+ |x'?3| (- x?9)))
                (= term_to_project_onto0 (+ |y'?2| (- y?8)))
                (= term_to_project_onto (+ |tmp___0'?1| (- tmp___0))))))
(check-sat)
